1
1000
60
492 1
491 1
484 1
474 1
470 1
464 1
460 1
450 1
448 1
429 1
415 1
415 1
412 1
400 1
399 1
389 1
367 1
367 1
366 1
365 1
361 1
360 1
353 1
340 1
336 1
336 1
334 1
327 1
311 1
311 1
309 1
303 1
300 1
282 1
282 1
281 1
279 1
278 1
277 1
274 1
273 1
272 1
270 1
270 1
269 1
266 1
264 1
262 1
260 1
260 1
259 1
258 1
257 1
257 1
254 1
254 1
252 1
251 1
251 1
250 1
